c Arquivo convertido de dwt__503.mtx
p edge 503 2762
e 1 2
e 1 13
e 1 14
e 1 71
e 1 82
e 2 3
e 2 13
e 2 14
e 2 15
e 3 4
e 3 14
e 3 15
e 3 16
e 4 5
e 4 15
e 4 16
e 4 17
e 5 6
e 5 16
e 5 17
e 5 18
e 6 7
e 6 17
e 6 18
e 6 19
e 7 8
e 7 18
e 7 19
e 7 20
e 8 9
e 8 19
e 8 20
e 8 21
e 9 10
e 9 20
e 9 21
e 9 22
e 10 11
e 10 21
e 10 22
e 10 23
e 11 12
e 11 22
e 11 23
e 12 23
e 12 68
e 13 14
e 13 24
e 13 25
e 13 71
e 13 82
e 13 92
e 14 15
e 14 24
e 14 25
e 14 26
e 15 16
e 15 25
e 15 26
e 15 27
e 16 17
e 16 26
e 16 27
e 16 28
e 17 18
e 17 27
e 17 28
e 17 29
e 18 19
e 18 28
e 18 29
e 18 30
e 19 20
e 19 29
e 19 30
e 19 31
e 20 21
e 20 30
e 20 31
e 20 32
e 21 22
e 21 31
e 21 32
e 21 33
e 22 23
e 22 32
e 22 33
e 22 34
e 23 33
e 23 34
e 23 67
e 23 68
e 24 25
e 24 70
e 24 82
e 24 92
e 24 149
e 24 155
e 25 26
e 25 35
e 25 70
e 25 155
e 26 27
e 26 35
e 26 36
e 26 155
e 27 28
e 27 35
e 27 36
e 27 37
e 28 29
e 28 36
e 28 37
e 28 38
e 29 30
e 29 37
e 29 38
e 29 39
e 30 31
e 30 38
e 30 39
e 30 40
e 31 32
e 31 39
e 31 40
e 31 41
e 32 33
e 32 40
e 32 41
e 32 42
e 33 34
e 33 41
e 33 42
e 33 43
e 34 42
e 34 43
e 34 66
e 34 67
e 34 68
e 35 36
e 35 145
e 35 155
e 35 172
e 35 190
e 35 191
e 35 229
e 36 37
e 36 44
e 36 191
e 36 229
e 37 38
e 37 44
e 37 45
e 37 229
e 38 39
e 38 44
e 38 45
e 38 46
e 39 40
e 39 45
e 39 46
e 39 47
e 40 41
e 40 46
e 40 47
e 40 48
e 41 42
e 41 47
e 41 48
e 41 49
e 42 43
e 42 48
e 42 49
e 42 50
e 43 49
e 43 50
e 43 65
e 43 66
e 43 67
e 44 45
e 44 51
e 44 228
e 44 229
e 44 246
e 44 264
e 44 265
e 44 449
e 44 450
e 45 46
e 45 51
e 45 53
e 45 450
e 46 47
e 46 51
e 46 53
e 46 54
e 47 48
e 47 53
e 47 54
e 47 55
e 48 49
e 48 54
e 48 55
e 48 56
e 49 50
e 49 55
e 49 56
e 49 64
e 50 56
e 50 64
e 50 65
e 50 66
e 51 52
e 51 53
e 51 58
e 51 411
e 51 412
e 51 449
e 51 450
e 51 467
e 51 503
e 52 53
e 52 57
e 52 58
e 52 271
e 52 411
e 52 412
e 52 430
e 52 431
e 52 449
e 52 450
e 52 467
e 52 485
e 52 486
e 52 503
e 53 54
e 53 58
e 53 59
e 54 55
e 54 58
e 54 59
e 54 60
e 55 56
e 55 59
e 55 60
e 55 61
e 56 60
e 56 61
e 56 62
e 56 63
e 56 64
e 57 58
e 57 266
e 57 271
e 57 467
e 57 485
e 57 486
e 58 59
e 58 266
e 58 267
e 58 271
e 59 60
e 59 266
e 59 267
e 59 268
e 60 61
e 60 267
e 60 268
e 60 269
e 61 62
e 61 63
e 61 268
e 61 269
e 61 270
e 62 63
e 62 269
e 62 270
e 62 338
e 63 64
e 63 270
e 63 338
e 64 65
e 65 66
e 66 67
e 67 68
e 69 70
e 69 136
e 69 137
e 69 138
e 69 139
e 69 140
e 69 141
e 69 142
e 69 143
e 69 144
e 69 145
e 69 146
e 69 147
e 69 148
e 69 149
e 69 150
e 69 151
e 69 152
e 69 153
e 69 154
e 69 155
e 70 92
e 70 136
e 70 137
e 70 138
e 70 139
e 70 140
e 70 141
e 70 142
e 70 143
e 70 144
e 70 145
e 70 146
e 70 147
e 70 148
e 70 149
e 70 150
e 70 151
e 70 152
e 70 153
e 70 154
e 70 155
e 71 72
e 71 82
e 71 83
e 72 73
e 72 82
e 72 83
e 72 84
e 73 74
e 73 83
e 73 84
e 73 85
e 74 75
e 74 84
e 74 85
e 74 86
e 75 76
e 75 85
e 75 86
e 75 87
e 76 77
e 76 86
e 76 87
e 76 88
e 77 78
e 77 87
e 77 88
e 77 89
e 78 79
e 78 88
e 78 89
e 78 90
e 79 80
e 79 89
e 79 90
e 79 91
e 80 81
e 80 90
e 80 91
e 81 91
e 81 135
e 82 83
e 82 92
e 82 93
e 83 84
e 83 92
e 83 93
e 83 94
e 84 85
e 84 93
e 84 94
e 84 95
e 85 86
e 85 94
e 85 95
e 85 96
e 86 87
e 86 95
e 86 96
e 86 97
e 87 88
e 87 96
e 87 97
e 87 98
e 88 89
e 88 97
e 88 98
e 88 99
e 89 90
e 89 98
e 89 99
e 89 100
e 90 91
e 90 99
e 90 100
e 90 101
e 91 100
e 91 101
e 91 134
e 91 135
e 92 93
e 92 102
e 92 149
e 93 94
e 93 102
e 93 103
e 93 149
e 94 95
e 94 102
e 94 103
e 94 104
e 95 96
e 95 103
e 95 104
e 95 105
e 96 97
e 96 104
e 96 105
e 96 106
e 97 98
e 97 105
e 97 106
e 97 107
e 98 99
e 98 106
e 98 107
e 98 108
e 99 100
e 99 107
e 99 108
e 99 109
e 100 101
e 100 108
e 100 109
e 100 110
e 101 109
e 101 110
e 101 133
e 101 134
e 101 135
e 102 103
e 102 139
e 102 149
e 102 161
e 102 162
e 102 178
e 102 179
e 102 180
e 102 217
e 103 104
e 103 111
e 103 179
e 103 217
e 104 105
e 104 111
e 104 112
e 104 217
e 105 106
e 105 111
e 105 112
e 105 113
e 106 107
e 106 112
e 106 113
e 106 114
e 107 108
e 107 113
e 107 114
e 107 115
e 108 109
e 108 114
e 108 115
e 108 116
e 109 110
e 109 115
e 109 116
e 109 117
e 110 116
e 110 117
e 110 132
e 110 133
e 110 134
e 111 112
e 111 118
e 111 216
e 111 217
e 111 218
e 111 235
e 111 236
e 111 252
e 111 253
e 111 254
e 111 437
e 111 438
e 111 439
e 112 113
e 112 118
e 112 120
e 112 438
e 113 114
e 113 118
e 113 120
e 113 121
e 114 115
e 114 120
e 114 121
e 114 122
e 115 116
e 115 121
e 115 122
e 115 123
e 116 117
e 116 122
e 116 123
e 116 131
e 117 123
e 117 131
e 117 132
e 117 133
e 118 119
e 118 120
e 118 125
e 118 399
e 118 400
e 118 401
e 118 437
e 118 438
e 118 439
e 118 456
e 118 457
e 118 492
e 118 493
e 119 120
e 119 124
e 119 125
e 119 332
e 119 352
e 119 399
e 119 400
e 119 401
e 119 418
e 119 419
e 119 420
e 119 437
e 119 438
e 119 439
e 119 456
e 119 457
e 119 473
e 119 474
e 119 475
e 119 492
e 119 493
e 120 121
e 120 125
e 120 126
e 121 122
e 121 125
e 121 126
e 121 127
e 122 123
e 122 126
e 122 127
e 122 128
e 123 127
e 123 128
e 123 129
e 123 130
e 123 131
e 124 125
e 124 332
e 124 333
e 124 352
e 124 353
e 124 456
e 124 457
e 124 473
e 124 474
e 124 475
e 125 126
e 125 332
e 125 333
e 125 334
e 125 352
e 125 353
e 125 354
e 126 127
e 126 333
e 126 334
e 126 335
e 126 353
e 126 354
e 126 355
e 127 128
e 127 334
e 127 335
e 127 336
e 127 354
e 127 355
e 127 356
e 128 129
e 128 130
e 128 335
e 128 336
e 128 337
e 128 355
e 128 356
e 128 357
e 129 130
e 129 336
e 129 337
e 129 348
e 129 349
e 129 356
e 129 357
e 130 131
e 130 337
e 130 348
e 130 349
e 130 357
e 131 132
e 132 133
e 133 134
e 134 135
e 136 137
e 136 146
e 136 147
e 136 156
e 136 157
e 136 173
e 136 174
e 136 192
e 136 193
e 137 138
e 137 146
e 137 147
e 137 148
e 137 157
e 137 158
e 137 159
e 137 174
e 137 175
e 137 176
e 137 193
e 137 194
e 137 195
e 138 139
e 138 147
e 138 148
e 138 149
e 138 159
e 138 160
e 138 161
e 138 176
e 138 177
e 138 178
e 138 195
e 138 196
e 138 197
e 139 140
e 139 148
e 139 149
e 139 150
e 139 161
e 139 162
e 139 178
e 139 179
e 139 180
e 139 197
e 139 198
e 139 199
e 140 141
e 140 149
e 140 150
e 140 151
e 140 162
e 140 163
e 140 164
e 140 180
e 140 181
e 140 182
e 140 199
e 140 200
e 140 201
e 141 142
e 141 150
e 141 151
e 141 152
e 141 164
e 141 165
e 141 166
e 141 182
e 141 183
e 141 184
e 141 201
e 141 202
e 141 203
e 142 143
e 142 151
e 142 152
e 142 153
e 142 166
e 142 167
e 142 168
e 142 184
e 142 185
e 142 186
e 142 203
e 142 204
e 142 205
e 143 144
e 143 152
e 143 153
e 143 154
e 143 168
e 143 169
e 143 170
e 143 186
e 143 187
e 143 188
e 143 205
e 143 206
e 143 207
e 144 145
e 144 153
e 144 154
e 144 155
e 144 170
e 144 171
e 144 172
e 144 188
e 144 189
e 144 190
e 144 207
e 144 208
e 144 209
e 145 154
e 145 155
e 145 172
e 145 190
e 145 191
e 145 209
e 145 210
e 146 147
e 146 156
e 146 157
e 146 173
e 146 174
e 147 148
e 147 157
e 147 158
e 147 159
e 147 174
e 147 175
e 147 176
e 148 149
e 148 159
e 148 160
e 148 161
e 148 176
e 148 177
e 148 178
e 149 150
e 149 161
e 149 162
e 149 178
e 149 179
e 149 180
e 150 151
e 150 162
e 150 163
e 150 164
e 150 180
e 150 181
e 150 182
e 151 152
e 151 164
e 151 165
e 151 166
e 151 182
e 151 183
e 151 184
e 152 153
e 152 166
e 152 167
e 152 168
e 152 184
e 152 185
e 152 186
e 153 154
e 153 168
e 153 169
e 153 170
e 153 186
e 153 187
e 153 188
e 154 155
e 154 170
e 154 171
e 154 172
e 154 188
e 154 189
e 154 190
e 155 172
e 155 190
e 155 191
e 156 157
e 156 173
e 156 174
e 157 158
e 157 173
e 157 174
e 157 175
e 158 159
e 158 174
e 158 175
e 158 176
e 159 160
e 159 175
e 159 176
e 159 177
e 160 161
e 160 176
e 160 177
e 160 178
e 161 177
e 161 178
e 161 179
e 162 163
e 162 179
e 162 180
e 162 181
e 163 164
e 163 180
e 163 181
e 163 182
e 164 165
e 164 181
e 164 182
e 164 183
e 165 166
e 165 182
e 165 183
e 165 184
e 166 167
e 166 183
e 166 184
e 166 185
e 167 168
e 167 184
e 167 185
e 167 186
e 168 169
e 168 185
e 168 186
e 168 187
e 169 170
e 169 186
e 169 187
e 169 188
e 170 171
e 170 187
e 170 188
e 170 189
e 171 172
e 171 188
e 171 189
e 171 190
e 172 189
e 172 190
e 172 191
e 173 174
e 173 192
e 173 193
e 173 211
e 173 212
e 173 247
e 173 248
e 174 175
e 174 192
e 174 193
e 174 194
e 174 211
e 174 212
e 174 213
e 174 247
e 174 248
e 174 249
e 175 176
e 175 193
e 175 194
e 175 195
e 175 212
e 175 213
e 175 214
e 175 248
e 175 249
e 175 250
e 176 177
e 176 194
e 176 195
e 176 196
e 176 213
e 176 214
e 176 215
e 176 249
e 176 250
e 176 251
e 177 178
e 177 195
e 177 196
e 177 197
e 177 214
e 177 215
e 177 216
e 177 250
e 177 251
e 177 252
e 178 179
e 178 196
e 178 197
e 178 198
e 178 215
e 178 216
e 178 217
e 178 251
e 178 252
e 178 253
e 179 180
e 179 197
e 179 198
e 179 199
e 179 216
e 179 217
e 179 218
e 179 252
e 179 253
e 179 254
e 180 181
e 180 198
e 180 199
e 180 200
e 180 217
e 180 218
e 180 219
e 180 253
e 180 254
e 180 255
e 181 182
e 181 199
e 181 200
e 181 201
e 181 218
e 181 219
e 181 220
e 181 254
e 181 255
e 181 256
e 182 183
e 182 200
e 182 201
e 182 202
e 182 219
e 182 220
e 182 221
e 182 255
e 182 256
e 182 257
e 183 184
e 183 201
e 183 202
e 183 203
e 183 220
e 183 221
e 183 222
e 183 256
e 183 257
e 183 258
e 184 185
e 184 202
e 184 203
e 184 204
e 184 221
e 184 222
e 184 223
e 184 257
e 184 258
e 184 259
e 185 186
e 185 203
e 185 204
e 185 205
e 185 222
e 185 223
e 185 224
e 185 258
e 185 259
e 185 260
e 186 187
e 186 204
e 186 205
e 186 206
e 186 223
e 186 224
e 186 225
e 186 259
e 186 260
e 186 261
e 187 188
e 187 205
e 187 206
e 187 207
e 187 224
e 187 225
e 187 226
e 187 260
e 187 261
e 187 262
e 188 189
e 188 206
e 188 207
e 188 208
e 188 225
e 188 226
e 188 227
e 188 261
e 188 262
e 188 263
e 189 190
e 189 207
e 189 208
e 189 209
e 189 226
e 189 227
e 189 228
e 189 262
e 189 263
e 189 264
e 190 191
e 190 208
e 190 209
e 190 210
e 190 227
e 190 228
e 190 229
e 190 263
e 190 264
e 190 265
e 191 209
e 191 210
e 191 228
e 191 229
e 191 264
e 191 265
e 192 193
e 192 211
e 192 212
e 192 247
e 192 248
e 193 194
e 193 211
e 193 212
e 193 213
e 193 247
e 193 248
e 193 249
e 194 195
e 194 212
e 194 213
e 194 214
e 194 248
e 194 249
e 194 250
e 195 196
e 195 213
e 195 214
e 195 215
e 195 249
e 195 250
e 195 251
e 196 197
e 196 214
e 196 215
e 196 216
e 196 250
e 196 251
e 196 252
e 197 198
e 197 215
e 197 216
e 197 217
e 197 251
e 197 252
e 197 253
e 198 199
e 198 216
e 198 217
e 198 218
e 198 252
e 198 253
e 198 254
e 199 200
e 199 217
e 199 218
e 199 219
e 199 253
e 199 254
e 199 255
e 200 201
e 200 218
e 200 219
e 200 220
e 200 254
e 200 255
e 200 256
e 201 202
e 201 219
e 201 220
e 201 221
e 201 255
e 201 256
e 201 257
e 202 203
e 202 220
e 202 221
e 202 222
e 202 256
e 202 257
e 202 258
e 203 204
e 203 221
e 203 222
e 203 223
e 203 257
e 203 258
e 203 259
e 204 205
e 204 222
e 204 223
e 204 224
e 204 258
e 204 259
e 204 260
e 205 206
e 205 223
e 205 224
e 205 225
e 205 259
e 205 260
e 205 261
e 206 207
e 206 224
e 206 225
e 206 226
e 206 260
e 206 261
e 206 262
e 207 208
e 207 225
e 207 226
e 207 227
e 207 261
e 207 262
e 207 263
e 208 209
e 208 226
e 208 227
e 208 228
e 208 262
e 208 263
e 208 264
e 209 210
e 209 227
e 209 228
e 209 229
e 209 263
e 209 264
e 209 265
e 210 228
e 210 229
e 210 264
e 210 265
e 211 212
e 211 230
e 211 231
e 211 247
e 211 248
e 211 432
e 211 433
e 212 213
e 212 230
e 212 231
e 212 232
e 212 247
e 212 248
e 212 249
e 212 432
e 212 433
e 212 434
e 213 214
e 213 231
e 213 232
e 213 233
e 213 248
e 213 249
e 213 250
e 213 433
e 213 434
e 213 435
e 214 215
e 214 232
e 214 233
e 214 234
e 214 249
e 214 250
e 214 251
e 214 434
e 214 435
e 214 436
e 215 216
e 215 233
e 215 234
e 215 235
e 215 250
e 215 251
e 215 252
e 215 435
e 215 436
e 215 437
e 216 217
e 216 234
e 216 235
e 216 251
e 216 252
e 216 253
e 216 436
e 216 437
e 216 438
e 217 218
e 217 235
e 217 236
e 217 252
e 217 253
e 217 254
e 217 437
e 217 438
e 217 439
e 218 219
e 218 236
e 218 237
e 218 253
e 218 254
e 218 255
e 218 438
e 218 439
e 218 440
e 219 220
e 219 236
e 219 237
e 219 238
e 219 254
e 219 255
e 219 256
e 219 439
e 219 440
e 219 441
e 220 221
e 220 237
e 220 238
e 220 239
e 220 255
e 220 256
e 220 257
e 220 440
e 220 441
e 220 442
e 221 222
e 221 238
e 221 239
e 221 240
e 221 256
e 221 257
e 221 258
e 221 441
e 221 442
e 221 443
e 222 223
e 222 239
e 222 240
e 222 241
e 222 257
e 222 258
e 222 259
e 222 442
e 222 443
e 222 444
e 223 224
e 223 240
e 223 241
e 223 242
e 223 258
e 223 259
e 223 260
e 223 443
e 223 444
e 223 445
e 224 225
e 224 241
e 224 242
e 224 243
e 224 259
e 224 260
e 224 261
e 224 444
e 224 445
e 224 446
e 225 226
e 225 242
e 225 243
e 225 244
e 225 260
e 225 261
e 225 262
e 225 445
e 225 446
e 225 447
e 226 227
e 226 243
e 226 244
e 226 245
e 226 261
e 226 262
e 226 263
e 226 446
e 226 447
e 226 448
e 227 228
e 227 244
e 227 245
e 227 246
e 227 262
e 227 263
e 227 264
e 227 447
e 227 448
e 227 449
e 228 229
e 228 245
e 228 246
e 228 263
e 228 264
e 228 265
e 228 448
e 228 449
e 228 450
e 229 246
e 229 264
e 229 265
e 229 449
e 229 450
e 230 231
e 230 247
e 230 248
e 230 432
e 230 433
e 231 232
e 231 247
e 231 248
e 231 249
e 231 432
e 231 433
e 231 434
e 232 233
e 232 248
e 232 249
e 232 250
e 232 433
e 232 434
e 232 435
e 233 234
e 233 249
e 233 250
e 233 251
e 233 434
e 233 435
e 233 436
e 234 235
e 234 250
e 234 251
e 234 252
e 234 435
e 234 436
e 234 437
e 235 251
e 235 252
e 235 253
e 235 436
e 235 437
e 235 438
e 236 237
e 236 253
e 236 254
e 236 255
e 236 438
e 236 439
e 236 440
e 237 238
e 237 254
e 237 255
e 237 256
e 237 439
e 237 440
e 237 441
e 238 239
e 238 255
e 238 256
e 238 257
e 238 440
e 238 441
e 238 442
e 239 240
e 239 256
e 239 257
e 239 258
e 239 441
e 239 442
e 239 443
e 240 241
e 240 257
e 240 258
e 240 259
e 240 442
e 240 443
e 240 444
e 241 242
e 241 258
e 241 259
e 241 260
e 241 443
e 241 444
e 241 445
e 242 243
e 242 259
e 242 260
e 242 261
e 242 444
e 242 445
e 242 446
e 243 244
e 243 260
e 243 261
e 243 262
e 243 445
e 243 446
e 243 447
e 244 245
e 244 261
e 244 262
e 244 263
e 244 446
e 244 447
e 244 448
e 245 246
e 245 262
e 245 263
e 245 264
e 245 447
e 245 448
e 245 449
e 246 263
e 246 264
e 246 265
e 246 448
e 246 449
e 246 450
e 247 248
e 247 394
e 247 395
e 247 432
e 247 433
e 248 249
e 248 394
e 248 395
e 248 396
e 248 432
e 248 433
e 248 434
e 249 250
e 249 395
e 249 396
e 249 397
e 249 433
e 249 434
e 249 435
e 250 251
e 250 396
e 250 397
e 250 398
e 250 434
e 250 435
e 250 436
e 251 252
e 251 397
e 251 398
e 251 399
e 251 435
e 251 436
e 251 437
e 252 253
e 252 398
e 252 399
e 252 400
e 252 436
e 252 437
e 252 438
e 253 254
e 253 399
e 253 400
e 253 401
e 253 437
e 253 438
e 253 439
e 254 255
e 254 400
e 254 401
e 254 402
e 254 438
e 254 439
e 254 440
e 255 256
e 255 401
e 255 402
e 255 403
e 255 439
e 255 440
e 255 441
e 256 257
e 256 402
e 256 403
e 256 404
e 256 440
e 256 441
e 256 442
e 257 258
e 257 403
e 257 404
e 257 405
e 257 441
e 257 442
e 257 443
e 258 259
e 258 404
e 258 405
e 258 406
e 258 442
e 258 443
e 258 444
e 259 260
e 259 405
e 259 406
e 259 407
e 259 443
e 259 444
e 259 445
e 260 261
e 260 406
e 260 407
e 260 408
e 260 444
e 260 445
e 260 446
e 261 262
e 261 407
e 261 408
e 261 409
e 261 445
e 261 446
e 261 447
e 262 263
e 262 408
e 262 409
e 262 410
e 262 446
e 262 447
e 262 448
e 263 264
e 263 409
e 263 410
e 263 411
e 263 447
e 263 448
e 263 449
e 264 265
e 264 410
e 264 411
e 264 412
e 264 448
e 264 449
e 264 450
e 265 411
e 265 412
e 265 449
e 265 450
e 266 267
e 266 271
e 266 272
e 266 273
e 266 275
e 267 268
e 267 273
e 267 275
e 267 277
e 268 269
e 268 275
e 268 277
e 268 278
e 269 270
e 269 277
e 269 278
e 269 279
e 270 278
e 270 279
e 270 338
e 270 339
e 271 272
e 271 273
e 271 466
e 271 467
e 271 484
e 271 485
e 271 486
e 272 273
e 272 280
e 272 281
e 272 465
e 272 466
e 272 467
e 272 483
e 272 484
e 272 485
e 273 274
e 273 275
e 273 280
e 273 281
e 274 275
e 274 281
e 275 276
e 275 277
e 276 277
e 276 282
e 277 278
e 277 282
e 277 283
e 278 279
e 278 282
e 278 283
e 278 284
e 279 283
e 279 284
e 279 338
e 279 339
e 279 340
e 280 281
e 280 285
e 280 286
e 280 464
e 280 465
e 280 466
e 280 482
e 280 483
e 280 484
e 281 285
e 281 286
e 281 287
e 282 283
e 282 289
e 282 290
e 282 291
e 283 284
e 283 290
e 283 291
e 283 292
e 284 291
e 284 292
e 284 339
e 284 340
e 284 341
e 285 286
e 285 293
e 285 294
e 285 463
e 285 464
e 285 465
e 285 481
e 285 482
e 285 483
e 286 287
e 286 288
e 286 293
e 286 294
e 286 295
e 287 288
e 288 289
e 288 290
e 288 294
e 288 295
e 288 296
e 289 290
e 290 291
e 290 295
e 290 296
e 290 297
e 291 292
e 291 296
e 291 297
e 291 298
e 292 297
e 292 298
e 292 340
e 292 341
e 292 342
e 293 294
e 293 299
e 293 300
e 293 462
e 293 463
e 293 464
e 293 480
e 293 481
e 293 482
e 294 295
e 294 299
e 294 300
e 294 301
e 295 296
e 295 300
e 295 301
e 295 302
e 296 297
e 296 301
e 296 302
e 296 303
e 297 298
e 297 302
e 297 303
e 297 304
e 298 303
e 298 304
e 298 341
e 298 342
e 298 343
e 299 300
e 299 305
e 299 306
e 299 461
e 299 462
e 299 463
e 299 479
e 299 480
e 299 481
e 300 301
e 300 305
e 300 306
e 300 307
e 301 302
e 301 306
e 301 307
e 301 308
e 302 303
e 302 307
e 302 308
e 302 309
e 303 304
e 303 308
e 303 309
e 303 310
e 304 309
e 304 310
e 304 342
e 304 343
e 304 344
e 305 306
e 305 311
e 305 312
e 305 460
e 305 461
e 305 462
e 305 478
e 305 479
e 305 480
e 306 307
e 306 311
e 306 312
e 306 314
e 307 308
e 307 312
e 307 314
e 307 316
e 308 309
e 308 314
e 308 316
e 308 317
e 309 310
e 309 316
e 309 317
e 309 318
e 310 317
e 310 318
e 310 343
e 310 344
e 310 345
e 311 312
e 311 319
e 311 320
e 311 459
e 311 460
e 311 461
e 311 477
e 311 478
e 311 479
e 312 313
e 312 314
e 312 319
e 312 320
e 313 314
e 313 320
e 314 315
e 314 316
e 315 316
e 315 321
e 316 317
e 316 321
e 316 322
e 317 318
e 317 321
e 317 322
e 317 323
e 318 322
e 318 323
e 318 344
e 318 345
e 318 346
e 319 320
e 319 324
e 319 325
e 319 458
e 319 459
e 319 460
e 319 476
e 319 477
e 319 478
e 320 324
e 320 325
e 320 326
e 321 322
e 321 328
e 321 329
e 321 330
e 322 323
e 322 329
e 322 330
e 322 331
e 323 330
e 323 331
e 323 345
e 323 346
e 323 347
e 324 325
e 324 332
e 324 333
e 324 457
e 324 458
e 324 459
e 324 475
e 324 476
e 324 477
e 325 326
e 325 327
e 325 332
e 325 333
e 325 334
e 326 327
e 327 328
e 327 329
e 327 333
e 327 334
e 327 335
e 328 329
e 329 330
e 329 334
e 329 335
e 329 336
e 330 331
e 330 335
e 330 336
e 330 337
e 331 336
e 331 337
e 331 346
e 331 347
e 331 348
e 332 333
e 332 457
e 332 458
e 332 474
e 332 475
e 332 476
e 333 334
e 334 335
e 335 336
e 336 337
e 337 347
e 337 348
e 338 339
e 339 340
e 340 341
e 341 342
e 342 343
e 343 344
e 344 345
e 345 346
e 346 347
e 347 348
e 349 350
e 349 357
e 349 365
e 350 351
e 350 357
e 350 365
e 350 370
e 351 365
e 351 370
e 351 378
e 351 391
e 352 353
e 352 358
e 352 359
e 352 455
e 352 456
e 352 472
e 352 473
e 352 474
e 353 354
e 353 358
e 353 359
e 353 361
e 354 355
e 354 359
e 354 361
e 354 363
e 355 356
e 355 361
e 355 363
e 355 364
e 356 357
e 356 363
e 356 364
e 356 365
e 357 364
e 357 365
e 358 359
e 358 366
e 358 367
e 358 454
e 358 455
e 358 456
e 358 471
e 358 472
e 358 473
e 359 360
e 359 361
e 359 366
e 359 367
e 360 361
e 360 367
e 361 362
e 361 363
e 362 363
e 362 368
e 363 364
e 363 368
e 363 369
e 364 365
e 364 368
e 364 369
e 364 370
e 365 369
e 365 370
e 366 367
e 366 371
e 366 372
e 366 453
e 366 454
e 366 455
e 366 470
e 366 471
e 366 472
e 367 371
e 367 372
e 367 373
e 368 369
e 368 375
e 368 376
e 368 377
e 369 370
e 369 376
e 369 377
e 369 378
e 370 377
e 370 378
e 370 391
e 371 372
e 371 379
e 371 380
e 371 452
e 371 453
e 371 454
e 371 469
e 371 470
e 371 471
e 372 373
e 372 374
e 372 379
e 372 380
e 372 381
e 373 374
e 374 375
e 374 376
e 374 380
e 374 381
e 374 382
e 375 376
e 376 377
e 376 381
e 376 382
e 376 383
e 377 378
e 377 382
e 377 383
e 377 384
e 378 383
e 378 384
e 378 391
e 378 392
e 379 380
e 379 385
e 379 386
e 379 451
e 379 452
e 379 453
e 379 468
e 379 469
e 379 470
e 380 381
e 380 385
e 380 386
e 380 387
e 381 382
e 381 386
e 381 387
e 381 388
e 382 383
e 382 387
e 382 388
e 382 389
e 383 384
e 383 388
e 383 389
e 383 390
e 384 389
e 384 390
e 384 391
e 384 392
e 384 393
e 385 386
e 385 451
e 385 452
e 385 468
e 385 469
e 386 387
e 387 388
e 388 389
e 389 390
e 390 392
e 390 393
e 391 392
e 392 393
e 394 395
e 394 413
e 394 414
e 394 432
e 394 433
e 394 451
e 394 452
e 394 468
e 394 469
e 394 487
e 394 488
e 395 396
e 395 413
e 395 414
e 395 415
e 395 432
e 395 433
e 395 434
e 395 451
e 395 452
e 395 453
e 395 468
e 395 469
e 395 470
e 395 487
e 395 488
e 395 489
e 396 397
e 396 414
e 396 415
e 396 416
e 396 433
e 396 434
e 396 435
e 396 452
e 396 453
e 396 454
e 396 469
e 396 470
e 396 471
e 396 488
e 396 489
e 396 490
e 397 398
e 397 415
e 397 416
e 397 417
e 397 434
e 397 435
e 397 436
e 397 453
e 397 454
e 397 455
e 397 470
e 397 471
e 397 472
e 397 489
e 397 490
e 397 491
e 398 399
e 398 416
e 398 417
e 398 418
e 398 435
e 398 436
e 398 437
e 398 454
e 398 455
e 398 456
e 398 471
e 398 472
e 398 473
e 398 490
e 398 491
e 398 492
e 399 400
e 399 417
e 399 418
e 399 419
e 399 436
e 399 437
e 399 438
e 399 455
e 399 456
e 399 472
e 399 473
e 399 474
e 399 491
e 399 492
e 400 401
e 400 418
e 400 419
e 400 420
e 400 437
e 400 438
e 400 439
e 400 456
e 400 457
e 400 473
e 400 474
e 400 475
e 400 492
e 400 493
e 401 402
e 401 419
e 401 420
e 401 421
e 401 438
e 401 439
e 401 440
e 401 457
e 401 458
e 401 474
e 401 475
e 401 476
e 401 493
e 401 494
e 402 403
e 402 420
e 402 421
e 402 422
e 402 439
e 402 440
e 402 441
e 402 457
e 402 458
e 402 459
e 402 475
e 402 476
e 402 477
e 402 493
e 402 494
e 402 495
e 403 404
e 403 421
e 403 422
e 403 423
e 403 440
e 403 441
e 403 442
e 403 458
e 403 459
e 403 460
e 403 476
e 403 477
e 403 478
e 403 494
e 403 495
e 403 496
e 404 405
e 404 422
e 404 423
e 404 424
e 404 441
e 404 442
e 404 443
e 404 459
e 404 460
e 404 461
e 404 477
e 404 478
e 404 479
e 404 495
e 404 496
e 404 497
e 405 406
e 405 423
e 405 424
e 405 425
e 405 442
e 405 443
e 405 444
e 405 460
e 405 461
e 405 462
e 405 478
e 405 479
e 405 480
e 405 496
e 405 497
e 405 498
e 406 407
e 406 424
e 406 425
e 406 426
e 406 443
e 406 444
e 406 445
e 406 461
e 406 462
e 406 463
e 406 479
e 406 480
e 406 481
e 406 497
e 406 498
e 406 499
e 407 408
e 407 425
e 407 426
e 407 427
e 407 444
e 407 445
e 407 446
e 407 462
e 407 463
e 407 464
e 407 480
e 407 481
e 407 482
e 407 498
e 407 499
e 407 500
e 408 409
e 408 426
e 408 427
e 408 428
e 408 445
e 408 446
e 408 447
e 408 463
e 408 464
e 408 465
e 408 481
e 408 482
e 408 483
e 408 499
e 408 500
e 408 501
e 409 410
e 409 427
e 409 428
e 409 429
e 409 446
e 409 447
e 409 448
e 409 464
e 409 465
e 409 466
e 409 482
e 409 483
e 409 484
e 409 500
e 409 501
e 409 502
e 410 411
e 410 428
e 410 429
e 410 430
e 410 447
e 410 448
e 410 449
e 410 465
e 410 466
e 410 467
e 410 483
e 410 484
e 410 485
e 410 501
e 410 502
e 410 503
e 411 412
e 411 429
e 411 430
e 411 431
e 411 448
e 411 449
e 411 450
e 411 466
e 411 467
e 411 484
e 411 485
e 411 486
e 411 502
e 411 503
e 412 430
e 412 431
e 412 449
e 412 450
e 412 467
e 412 485
e 412 486
e 412 503
e 413 414
e 413 451
e 413 452
e 413 468
e 413 469
e 414 415
e 414 451
e 414 452
e 414 453
e 414 468
e 414 469
e 414 470
e 415 416
e 415 452
e 415 453
e 415 454
e 415 469
e 415 470
e 415 471
e 416 417
e 416 453
e 416 454
e 416 455
e 416 470
e 416 471
e 416 472
e 417 418
e 417 454
e 417 455
e 417 456
e 417 471
e 417 472
e 417 473
e 418 419
e 418 455
e 418 456
e 418 472
e 418 473
e 418 474
e 419 420
e 419 456
e 419 457
e 419 473
e 419 474
e 419 475
e 420 421
e 420 457
e 420 458
e 420 474
e 420 475
e 420 476
e 421 422
e 421 457
e 421 458
e 421 459
e 421 475
e 421 476
e 421 477
e 422 423
e 422 458
e 422 459
e 422 460
e 422 476
e 422 477
e 422 478
e 423 424
e 423 459
e 423 460
e 423 461
e 423 477
e 423 478
e 423 479
e 424 425
e 424 460
e 424 461
e 424 462
e 424 478
e 424 479
e 424 480
e 425 426
e 425 461
e 425 462
e 425 463
e 425 479
e 425 480
e 425 481
e 426 427
e 426 462
e 426 463
e 426 464
e 426 480
e 426 481
e 426 482
e 427 428
e 427 463
e 427 464
e 427 465
e 427 481
e 427 482
e 427 483
e 428 429
e 428 464
e 428 465
e 428 466
e 428 482
e 428 483
e 428 484
e 429 430
e 429 465
e 429 466
e 429 467
e 429 483
e 429 484
e 429 485
e 430 431
e 430 466
e 430 467
e 430 484
e 430 485
e 430 486
e 431 467
e 431 485
e 431 486
e 432 433
e 432 451
e 432 452
e 432 487
e 432 488
e 433 434
e 433 451
e 433 452
e 433 453
e 433 487
e 433 488
e 433 489
e 434 435
e 434 452
e 434 453
e 434 454
e 434 488
e 434 489
e 434 490
e 435 436
e 435 453
e 435 454
e 435 455
e 435 489
e 435 490
e 435 491
e 436 437
e 436 454
e 436 455
e 436 456
e 436 490
e 436 491
e 436 492
e 437 438
e 437 455
e 437 456
e 437 491
e 437 492
e 438 439
e 438 456
e 438 457
e 438 492
e 438 493
e 439 440
e 439 457
e 439 458
e 439 493
e 439 494
e 440 441
e 440 457
e 440 458
e 440 459
e 440 493
e 440 494
e 440 495
e 441 442
e 441 458
e 441 459
e 441 460
e 441 494
e 441 495
e 441 496
e 442 443
e 442 459
e 442 460
e 442 461
e 442 495
e 442 496
e 442 497
e 443 444
e 443 460
e 443 461
e 443 462
e 443 496
e 443 497
e 443 498
e 444 445
e 444 461
e 444 462
e 444 463
e 444 497
e 444 498
e 444 499
e 445 446
e 445 462
e 445 463
e 445 464
e 445 498
e 445 499
e 445 500
e 446 447
e 446 463
e 446 464
e 446 465
e 446 499
e 446 500
e 446 501
e 447 448
e 447 464
e 447 465
e 447 466
e 447 500
e 447 501
e 447 502
e 448 449
e 448 465
e 448 466
e 448 467
e 448 501
e 448 502
e 448 503
e 449 450
e 449 466
e 449 467
e 449 502
e 449 503
e 450 467
e 450 503
e 451 452
e 451 468
e 451 469
e 451 487
e 451 488
e 452 453
e 452 468
e 452 469
e 452 470
e 452 487
e 452 488
e 452 489
e 453 454
e 453 469
e 453 470
e 453 471
e 453 488
e 453 489
e 453 490
e 454 455
e 454 470
e 454 471
e 454 472
e 454 489
e 454 490
e 454 491
e 455 456
e 455 471
e 455 472
e 455 473
e 455 490
e 455 491
e 455 492
e 456 472
e 456 473
e 456 474
e 456 491
e 456 492
e 457 458
e 457 474
e 457 475
e 457 476
e 457 493
e 457 494
e 458 459
e 458 475
e 458 476
e 458 477
e 458 493
e 458 494
e 458 495
e 459 460
e 459 476
e 459 477
e 459 478
e 459 494
e 459 495
e 459 496
e 460 461
e 460 477
e 460 478
e 460 479
e 460 495
e 460 496
e 460 497
e 461 462
e 461 478
e 461 479
e 461 480
e 461 496
e 461 497
e 461 498
e 462 463
e 462 479
e 462 480
e 462 481
e 462 497
e 462 498
e 462 499
e 463 464
e 463 480
e 463 481
e 463 482
e 463 498
e 463 499
e 463 500
e 464 465
e 464 481
e 464 482
e 464 483
e 464 499
e 464 500
e 464 501
e 465 466
e 465 482
e 465 483
e 465 484
e 465 500
e 465 501
e 465 502
e 466 467
e 466 483
e 466 484
e 466 485
e 466 501
e 466 502
e 466 503
e 467 484
e 467 485
e 467 486
e 467 502
e 467 503
e 468 469
e 469 470
e 470 471
e 471 472
e 472 473
e 473 474
e 474 475
e 475 476
e 476 477
e 477 478
e 478 479
e 479 480
e 480 481
e 481 482
e 482 483
e 483 484
e 484 485
e 485 486
e 487 488
e 488 489
e 489 490
e 490 491
e 491 492
e 493 494
e 494 495
e 495 496
e 496 497
e 497 498
e 498 499
e 499 500
e 500 501
e 501 502
e 502 503
